; benchmark generated from python API
(set-info :status unknown)
(declare-fun L_2 () Real)
(declare-fun S_2 () Real)
(declare-fun A_2 () Real)
(declare-fun S_4 () Real)
(declare-fun L_4 () Real)
(declare-fun A_4 () Real)
(declare-fun L_1 () Real)
(declare-fun S_1 () Real)
(declare-fun A_1 () Real)
(declare-fun L_3 () Real)
(declare-fun S_3 () Real)
(declare-fun A_3 () Real)
(declare-fun L_0 () Real)
(declare-fun S_0 () Real)
(declare-fun A_0 () Real)
(assert
 (let (($x34 (>= L_0 0.0)))
 (let ((?x402 (* (- 1.0) L_4)))
 (let ((?x431 (+ L_3 ?x402)))
 (let (($x97020 (<= 0.0 ?x431)))
 (let ((?x1377 (* 2.0 L_4)))
 (let ((?x1018 (* (- 2.0) L_1)))
 (let ((?x927 (* (- 1.0) S_0)))
 (let ((?x376 (* (- 1.0) S_2)))
 (let ((?x1376 (* (- 2.0) L_3)))
 (let ((?x1043 (* 2.0 A_1)))
 (let ((?x1375 (* 2.0 A_3)))
 (let ((?x1374 (* (- 2.0) A_4)))
 (let (($x19814 (<= (+ ?x1374 ?x1375 ?x1043 ?x1376 ?x376 ?x927 ?x1018 ?x1377) 0.0)))
 (let ((?x1249 (* 4.0 L_4)))
 (let ((?x1143 (* (- 4.0) L_2)))
 (let ((?x3554 (* (- 2.0) S_0)))
 (let ((?x3528 (* 2.0 S_3)))
 (let ((?x1140 (* 4.0 A_2)))
 (let ((?x1371 (* (- 4.0) A_4)))
 (let (($x3556 (<= (+ ?x1371 ?x1140 ?x3528 ?x3554 ?x1143 ?x1249) 0.0)))
 (let (($x103117 (<= (+ (* (- 1.0) A_4) (* 2.0 S_2) (* (- 1.0) S_1) L_4) (- 5.0))))
 (let (($x241355 (or $x97020 $x103117 (<= (+ ?x1374 ?x1375 ?x1376 S_2 (* (- 1.0) S_1) ?x1377) (- 10.0)))))
 (let ((?x1161 (* 3.0 L_4)))
 (let ((?x1079 (* (- 3.0) L_1)))
 (let ((?x365 (* (- 1.0) S_3)))
 (let ((?x1189 (* (- 3.0) L_3)))
 (let ((?x1063 (* 3.0 A_1)))
 (let ((?x1199 (* 3.0 A_3)))
 (let ((?x1365 (* (- 3.0) A_4)))
 (let (($x55923 (<= (+ ?x1365 ?x1199 ?x1063 ?x1189 ?x365 ?x3554 ?x1079 ?x1161) 0.0)))
 (let (($x851 (<= (+ A_2 ?x365 (* (- 1.0) L_2)) 0.0)))
 (let ((?x1045 (* (- 3.0) L_2)))
 (let ((?x4767 (* 2.0 S_2)))
 (let ((?x1100 (* 3.0 A_2)))
 (let (($x7168 (<= (+ ?x1365 ?x1100 ?x4767 ?x3554 ?x1045 ?x1161) 0.0)))
 (let (($x101134 (<= (+ ?x1374 ?x1375 A_1 ?x1376 ?x927 (* (- 1.0) L_1) ?x1377) (- 5.0))))
 (let (($x107021 (<= (+ (* (- 1.0) A_4) A_2 (* (- 1.0) L_2) S_1 ?x927 L_4) (- 5.0))))
 (let (($x101960 (<= (+ (* (- 1.0) A_4) (* (/ 5.0 2.0) S_1) (* (- (/ 3.0 2.0)) S_0) L_4) (- 5.0))))
 (let ((?x5908 (* (- (/ 1.0 2.0)) S_0)))
 (let ((?x15147 (* (/ 1.0 2.0) S_1)))
 (let ((?x415 (* (- 1.0) L_3)))
 (let ((?x334 (* (- 1.0) A_4)))
 (let ((?x428 (* (- 1.0) L_2)))
 (let ((?x7179 (+ ?x334 A_2 ?x428 L_4)))
 (let (($x100534 (<= ?x7179 (- 15.0))))
 (let ((?x1384 (+ ?x334 A_3 ?x415 L_4)))
 (let (($x97635 (<= ?x1384 (- 10.0))))
 (let (($x249387 (or $x97020 $x97635 $x100534 (<= (+ ?x334 A_1 (* (- 1.0) L_1) L_4) (- 20.0)) (<= (+ ?x334 S_0 L_4) (- 25.0)))))
 (let ((?x11087 (* 5.0 L_4)))
 (let ((?x6388 (* (- 5.0) L_2)))
 (let ((?x4720 (* 2.0 S_4)))
 (let ((?x6386 (* 5.0 A_2)))
 (let ((?x10818 (* (- 5.0) A_4)))
 (let (($x13168 (<= (+ ?x10818 ?x6386 ?x4720 ?x3554 ?x6388 ?x11087) 0.0)))
 (let (($x247479 (or $x97020 (<= (+ ?x334 (* (/ 5.0 3.0) S_2) (* (- (/ 2.0 3.0)) S_0) L_4) (- 5.0)) (<= (+ ?x1365 ?x1199 ?x1189 S_2 ?x927 ?x1161) (- 15.0)))))
 (let (($x101581 (<= (+ ?x334 (* (- 3.0) A_0) (* 4.0 S_1) (* 3.0 L_0) L_4) (- 5.0))))
 (let ((?x4729 (* 2.0 L_0)))
 (let ((?x3455 (* 2.0 S_1)))
 (let ((?x4727 (* (- 2.0) A_0)))
 (let (($x246114 (or $x97020 (<= (+ ?x334 A_2 ?x4727 ?x428 ?x3455 ?x4729 L_4) (- 5.0)) (<= (+ ?x334 A_3 (* (- 1.0) A_0) ?x415 S_1 L_0 L_4) (- 5.0)) $x101581)))
 (let ((?x441 (* (- 1.0) L_1)))
 (let ((?x342 (* (- 1.0) A_2)))
 (let ((?x338 (* (- 1.0) A_3)))
 (let (($x92005 (<= 0.0 (+ A_4 ?x338 ?x342 A_1 ?x402 ?x441 L_2 L_3))))
 (let (($x101587 (<= (+ ?x1374 ?x1375 A_2 (* (- 1.0) A_0) ?x1376 L_0 ?x428 ?x1377) (- 5.0))))
 (let (($x870 (= (+ L_2 ?x441) 0.0)))
 (let (($x251065 (or $x870 (<= (+ (* (- 3.0) A_2) ?x1043 ?x1018 S_4 (* 3.0 L_2)) (- 15.0)) (<= (+ ?x342 (* (/ 1.0 2.0) S_4) (* (/ 1.0 2.0) S_0) L_2) (- 5.0)))))
 (let (($x7186 (<= (+ ?x334 A_2 (* (- 1.0) A_0) S_2 L_0 ?x428 L_4) 0.0)))
 (let (($x1624 (<= (+ ?x334 A_3 A_1 (* (- 1.0) A_0) ?x415 L_0 ?x441 L_4) 0.0)))
 (let ((?x1025 (* (- 2.0) L_2)))
 (let ((?x387 (* (- 1.0) S_1)))
 (let ((?x1066 (* 2.0 A_2)))
 (let (($x46639 (<= (+ ?x1374 ?x1375 ?x1066 ?x1376 ?x365 ?x387 ?x1025 ?x1377) 0.0)))
 (let ((?x3545 (* (/ 3.0 2.0) L_4)))
 (let ((?x3544 (* (- (/ 3.0 2.0)) L_2)))
 (let ((?x4994 (* (- (/ 3.0 2.0)) L_3)))
 (let ((?x3543 (* (/ 3.0 2.0) A_2)))
 (let ((?x4992 (* (/ 3.0 2.0) A_3)))
 (let ((?x3541 (* (- (/ 3.0 2.0)) A_4)))
 (let (($x56996 (<= (+ ?x3541 ?x4992 ?x3543 ?x4994 ?x365 ?x5908 ?x3544 ?x3545) 0.0)))
 (let (($x1618 (<= (+ ?x334 A_3 ?x342 ?x1043 ?x415 ?x927 ?x1018 L_2 L_4) 0.0)))
 (let (($x110182 (<= (+ (* (- 2.0) A_3) ?x342 (* 2.0 L_3) ?x4720 S_0 L_2) (- 5.0))))
 (let (($x251209 (or $x870 (<= (+ ?x338 ?x342 A_1 L_3 S_4 ?x441 L_2) (- 5.0)) $x110182)))
 (let (($x31186 (<= (+ ?x1374 ?x1375 ?x1066 (* (- 1.0) A_0) ?x1376 ?x365 L_0 ?x1025 ?x1377) 0.0)))
 (let (($x18400 (<= (+ ?x1374 ?x1066 ?x3455 ?x3554 ?x1025 ?x1377) 0.0)))
 (let (($x101808 (<= (+ (* (- 2.0) A_3) (* 3.0 S_2) ?x387 (* 2.0 L_3)) (- 10.0))))
 (let (($x868 (= (+ L_3 ?x428) 0.0)))
 (let (($x100364 (<= (+ (* (- 3.0) A_3) (* 4.0 S_2) ?x927 (* 3.0 L_3)) (- 15.0))))
 (let (($x101800 (<= (+ ?x338 (* (/ 1.0 2.0) A_2) (* (- (/ 1.0 2.0)) L_2) (* (/ 1.0 2.0) S_4) L_3) (- 5.0))))
 (let (($x241077 (or $x868 (<= (+ ?x338 (* (/ 3.0 4.0) S_4) (* (/ 1.0 4.0) S_0) L_3) (- 5.0)) $x101800 (<= (+ (* (- 3.0) A_3) A_1 ?x441 ?x4720 (* 3.0 L_3)) (- 15.0)))))
 (let (($x14525 (<= (+ ?x1365 ?x1100 (* (- 2.0) A_1) (* 2.0 L_1) ?x4720 ?x1045 ?x1161) 0.0)))
 (let ((?x346 (* (- 1.0) A_1)))
 (let ((?x1625 (+ ?x334 A_3 A_2 ?x346 ?x415 L_1 ?x428 L_4)))
 (let (($x95651 (<= 0.0 ?x1625)))
 (let ((?x3551 (* (- (/ 3.0 2.0)) L_4)))
 (let ((?x3550 (* (/ 3.0 2.0) L_2)))
 (let ((?x3549 (* (- (/ 3.0 2.0)) A_2)))
 (let ((?x3548 (* (/ 3.0 2.0) A_4)))
 (let (($x26509 (<= (+ ?x1374 ?x1043 (* 3.0 S_1) (* (- 3.0) S_0) ?x1018 ?x1377) 0.0)))
 (let (($x13954 (<= (+ ?x334 A_2 A_1 ?x441 ?x927 ?x428 L_4) 0.0)))
 (let ((?x10645 (+ ?x334 A_1 ?x441 L_4)))
 (let (($x103462 (<= ?x10645 (- 15.0))))
 (let (($x1614 (<= (+ ?x334 A_3 A_1 ?x415 ?x387 ?x441 L_4) 0.0)))
 (let ((?x1057 (* (- 4.0) L_1)))
 (let ((?x11110 (* 3.0 L_0)))
 (let ((?x8063 (* 3.0 S_4)))
 (let ((?x11109 (* (- 3.0) A_0)))
 (let ((?x1112 (* 4.0 A_1)))
 (let (($x246924 (or $x1624 (<= (+ ?x1371 ?x1112 ?x11109 ?x8063 ?x11110 ?x1057 ?x1249) 0.0) (<= (+ ?x1374 A_2 ?x1043 ?x4727 ?x428 S_4 ?x4729 ?x1018 ?x1377) 0.0) $x97020)))
 (let (($x3568 (<= (+ ?x3541 ?x3543 (* (- 1.0) A_0) S_3 L_0 ?x3544 ?x3545) 0.0)))
 (let ((?x2873 (+ ?x338 A_2 ?x428 L_3)))
 (let (($x101819 (<= ?x2873 (- 10.0))))
 (let (($x242286 (or $x868 (<= (+ ?x338 S_0 L_3) (- 20.0)) $x101819 (<= (+ ?x338 A_1 ?x441 L_3) (- 15.0)))))
 (let ((?x1797 (* (- 5.0) L_1)))
 (let ((?x10638 (* (- 3.0) S_0)))
 (let ((?x1930 (* 5.0 A_1)))
 (let (($x11095 (<= (+ ?x10818 ?x1930 ?x8063 ?x10638 ?x1797 ?x11087) 0.0)))
 (let (($x64598 (<= (+ ?x1374 A_2 ?x1043 ?x428 S_4 (* (- 2.0) S_1) ?x1018 ?x1377) 0.0)))
 (let (($x246059 (or $x1614 (<= (+ ?x1371 ?x1112 ?x8063 (* (- 3.0) S_1) ?x1057 ?x1249) 0.0) $x64598 $x97020)))
 (let (($x78322 (<= 0.0 (+ A_4 (* (- 3.0) A_2) ?x1043 ?x402 ?x1018 (* 3.0 L_2)))))
 (let (($x872 (= (+ L_1 (* (- 1.0) L_0)) 0.0)))
 (let (($x15319 (<= (+ ?x1365 ?x1063 (* 3.0 S_2) ?x10638 ?x1079 ?x1161) 0.0)))
 (let (($x101974 (or $x97020 $x103462 (<= (+ ?x334 A_3 A_1 ?x415 ?x376 ?x441 L_4) (- 5.0)))))
 (let (($x35461 (<= (+ ?x1371 ?x1112 (* 3.0 S_3) ?x10638 ?x1057 ?x1249) 0.0)))
 (let (($x247866 (or $x97020 (<= (+ ?x334 (* (- 1.0) A_0) ?x4767 L_0 L_4) (- 5.0)) (<= (+ ?x1374 ?x1375 (* (- 1.0) A_0) ?x1376 S_2 L_0 ?x1377) (- 10.0)))))
 (let (($x247854 (or $x1624 (<= (+ ?x334 A_2 A_1 ?x4727 ?x428 S_1 ?x4729 ?x441 L_4) 0.0) (<= (+ ?x334 A_1 ?x11109 (* 3.0 S_1) ?x11110 ?x441 L_4) 0.0) $x97020)))
 (let (($x15360 (<= (+ ?x1374 ?x1043 (* 3.0 S_2) (* (- 3.0) S_1) ?x1018 ?x1377) 0.0)))
 (let (($x16072 (<= (+ A_4 ?x342 ?x346 L_2 ?x376 (* 2.0 S_0) L_1 ?x402) 0.0)))
 (let (($x99577 (<= (+ (* (- 2.0) A_3) ?x1066 ?x1025 S_1 ?x927 (* 2.0 L_3)) (- 10.0))))
 (let (($x244942 (or (<= (+ ?x334 ?x342 A_1 L_2 ?x3528 ?x376 ?x441 L_4) 0.0) $x97020)))
 (let (($x3547 (<= (+ ?x3541 ?x3543 S_3 ?x387 ?x3544 ?x3545) 0.0)))
 (let (($x1610 (<= (+ ?x334 A_3 A_2 ?x415 ?x376 ?x428 L_4) 0.0)))
 (let ((?x3452 (* (/ 1.0 2.0) L_2)))
 (let ((?x3523 (* (- (/ 1.0 2.0)) L_4)))
 (let ((?x3414 (* (- (/ 1.0 2.0)) A_2)))
 (let ((?x3477 (* (/ 1.0 2.0) A_4)))
 (let (($x18759 (<= (+ ?x3477 ?x3414 ?x3523 ?x3452 ?x376 S_0) 0.0)))
 (let (($x857 (<= (+ A_1 ?x376 ?x441) 0.0)))
 (let (($x107396 (<= (+ ?x3541 ?x4992 (* (/ 1.0 2.0) A_2) ?x4994 ?x5908 (* (- (/ 1.0 2.0)) L_2) ?x3545) (- 5.0))))
 (let (($x244480 (or $x1610 (<= (+ ?x1365 ?x1100 ?x4720 (* (- 2.0) S_2) ?x1045 ?x1161) 0.0) $x97020)))
 (let ((?x1022 (* 2.0 L_1)))
 (let ((?x4781 (* 2.0 S_0)))
 (let ((?x1000 (* (- 2.0) A_1)))
 (let (($x105677 (<= (+ ?x1374 ?x1375 A_2 ?x1376 ?x387 ?x428 ?x1377) (- 5.0))))
 (let (($x13283 (<= (+ ?x1374 ?x1066 S_4 ?x387 ?x1025 ?x1377) 0.0)))
 (let (($x244599 (or $x1624 (<= (+ ?x1374 ?x1043 ?x11109 (* 3.0 S_2) ?x11110 ?x1018 ?x1377) 0.0) $x97020)))
 (let (($x120668 (or $x97020 (<= (+ ?x334 A_3 ?x346 ?x415 S_2 L_1 L_4) (- 5.0)) (<= (+ ?x334 ?x1000 ?x1022 (* 3.0 S_2) L_4) (- 5.0)))))
 (let (($x125800 (or $x851 (<= (+ ?x334 ?x338 A_1 L_3 ?x4720 ?x365 ?x441 L_4) 0.0) $x97020)))
 (let (($x50889 (<= (+ (* (- 2.0) A_3) ?x1066 ?x1043 ?x1025 ?x376 ?x927 ?x1018 (* 2.0 L_3)) 0.0)))
 (let ((?x5015 (* (/ 5.0 2.0) L_3)))
 (let ((?x5014 (* (- (/ 5.0 2.0)) L_1)))
 (let ((?x5013 (* (/ 5.0 2.0) A_1)))
 (let ((?x5012 (* (- (/ 5.0 2.0)) A_3)))
 (let (($x5017 (<= (+ ?x5012 ?x5013 S_4 ?x927 ?x5014 ?x5015) 0.0)))
 (let ((?x7998 (* (- 3.0) S_4)))
 (let ((?x1096 (* 3.0 L_1)))
 (let ((?x1049 (* (- 3.0) A_1)))
 (let (($x845 (<= (+ A_3 (* (- 1.0) S_4) ?x415) 0.0)))
 (let (($x13292 (<= (+ ?x1374 ?x1066 (* (- 1.0) A_0) S_4 L_0 ?x1025 ?x1377) 0.0)))
 (let (($x100468 (<= 0.0 (+ ?x3477 ?x3414 ?x346 ?x3523 ?x3452 S_0 L_1))))
 (let (($x12695 (<= (+ A_4 ?x342 ?x365 S_0 L_2 ?x402) 0.0)))
 (let (($x102048 (<= (+ ?x334 (* (- (/ 1.0 2.0)) A_1) (* (/ 1.0 2.0) L_1) (* (/ 3.0 2.0) S_3) L_4) (- 5.0))))
 (let ((?x3530 (* (/ 1.0 2.0) L_4)))
 (let ((?x3519 (* (- (/ 1.0 2.0)) L_2)))
 (let ((?x862 (* (- 1.0) A_0)))
 (let ((?x3517 (* (/ 1.0 2.0) A_2)))
 (let ((?x3435 (* (- (/ 1.0 2.0)) A_4)))
 (let (($x17971 (<= (+ ?x3435 ?x3517 ?x862 S_1 L_0 ?x3519 ?x3530) 0.0)))
 (let (($x103607 (<= (+ A_2 ?x428 (* (- 1.0) S_4)) (- 5.0))))
 (let ((?x100642 (+ ?x346 S_0 L_1)))
 (let (($x100643 (<= (- 5.0) ?x100642)))
 (let (($x97911 (<= (+ (* (- (/ 1.0 3.0)) S_4) (* (/ 1.0 3.0) S_0)) (- 5.0))))
 (let (($x249187 (or $x845 $x872 (<= (+ A_4 ?x346 ?x7998 (* 3.0 S_2) L_1 ?x402) 0.0))))
 (let (($x97021 (not $x97020)))
 (let (($x118098 (or $x845 $x872 (<= (+ A_4 ?x346 ?x7998 (* 3.0 S_2) L_1 ?x415) 0.0) $x97021)))
 (let ((?x4325 (* (- (/ 1.0 3.0)) L_4)))
 (let ((?x4440 (* (/ 1.0 3.0) A_4)))
 (let (($x116361 (or $x872 (<= (+ ?x4440 (* (- (/ 4.0 3.0)) A_1) S_0 (* (/ 4.0 3.0) L_1) ?x4325) (- 5.0)))))
 (let (($x39511 (<= (+ ?x4440 (* (- (/ 1.0 3.0)) A_1) ?x376 S_0 (* (/ 1.0 3.0) L_1) ?x4325) 0.0)))
 (let (($x105614 (<= (+ (* (- 2.0) A_3) ?x1066 A_1 ?x1025 ?x927 ?x441 (* 2.0 L_3)) (- 5.0))))
 (let ((?x4453 (* (- (/ 2.0 3.0)) L_4)))
 (let ((?x13548 (* (- (/ 1.0 3.0)) L_1)))
 (let ((?x14851 (* (/ 1.0 3.0) A_1)))
 (let ((?x4425 (* (/ 2.0 3.0) A_4)))
 (let (($x28830 (<= (+ ?x4425 ?x338 ?x14851 ?x13548 L_3 ?x4453) 0.0)))
 (let (($x50866 (<= (+ ?x338 ?x1066 A_1 (* (- 1.0) S_4) ?x1025 ?x927 ?x441 L_3) 0.0)))
 (let (($x11977 (<= (+ ?x338 A_2 A_1 ?x441 ?x387 ?x428 L_3) 0.0)))
 (let ((?x1395 (* 4.0 L_3)))
 (let ((?x3658 (* (- 2.0) S_1)))
 (let ((?x1394 (* (- 4.0) A_3)))
 (let (($x38030 (<= (+ (* (- 3.0) A_3) ?x1063 ?x3528 ?x3658 ?x1079 (* 3.0 L_3)) 0.0)))
 (let (($x13234 (<= (+ ?x338 A_2 A_1 ?x862 ?x441 L_0 ?x428 L_3) 0.0)))
 (let ((?x1035 (* 3.0 L_2)))
 (let ((?x1085 (* (- 3.0) A_2)))
 (let ((?x1627 (+ A_4 ?x1085 ?x1043 ?x1018 ?x1035 ?x402)))
 (let (($x243198 (or $x870 (<= (+ A_4 (* (- 2.0) A_2) S_0 (* 2.0 L_2) ?x402) (- 5.0)) (<= ?x1627 (- 10.0)))))
 (let (($x16456 (<= (+ ?x10818 (* 5.0 A_3) S_4 ?x927 (* (- 5.0) L_3) ?x11087) 0.0)))
 (let (($x38057 (<= (+ (* (- 2.0) A_3) ?x1043 S_3 ?x927 ?x1018 (* 2.0 L_3)) 0.0)))
 (let (($x17193 (<= (+ A_4 ?x338 A_2 ?x428 (* (- 1.0) S_4) L_3 ?x402) 0.0)))
 (let ((?x1183 (* (- 2.0) L_4)))
 (let ((?x1228 (* 2.0 L_3)))
 (let ((?x354 (* (- 1.0) S_4)))
 (let ((?x689 (* (- 2.0) A_3)))
 (let ((?x1197 (* 2.0 A_4)))
 (let (($x285 (<= 0.0 (+ A_4 ?x338 ?x346 S_0 L_1 L_3 ?x402))))
 (let (($x283 (not $x285)))
 (let (($x241574 (or $x283 $x868 (<= (+ ?x1197 ?x689 A_1 ?x441 ?x354 ?x1228 ?x1183) 0.0) $x17193)))
 (let (($x245624 (or $x872 (<= (+ ?x3414 ?x346 ?x3452 (* (/ 1.0 2.0) S_4) S_0 L_1) (- 5.0)))))
 (let (($x104542 (<= (+ (* (- 4.0) A_1) S_4 (* 3.0 S_0) (* 4.0 L_1)) (- 20.0))))
 (let ((?x4983 (* (/ 3.0 2.0) L_3)))
 (let ((?x4998 (* (- (/ 3.0 2.0)) L_1)))
 (let ((?x4970 (* (/ 3.0 2.0) A_1)))
 (let ((?x4920 (* (- (/ 3.0 2.0)) A_3)))
 (let (($x5219 (<= (+ ?x4920 ?x4970 S_2 ?x927 ?x4998 ?x4983) 0.0)))
 (let ((?x4989 (* (/ 1.0 2.0) L_3)))
 (let ((?x4973 (* (- (/ 1.0 2.0)) L_1)))
 (let ((?x4986 (* (/ 1.0 2.0) A_1)))
 (let ((?x4980 (* (- (/ 1.0 2.0)) A_3)))
 (let (($x241211 (or $x97020 $x103462 (<= (+ ?x334 A_3 A_1 ?x415 ?x365 ?x441 L_4) (- 10.0)))))
 (let (($x4976 (<= (+ ?x689 ?x1043 ?x4720 (* (- 2.0) S_3) ?x1018 ?x1228) 0.0)))
 (let (($x38028 (<= (+ (* (- 3.0) A_3) ?x1063 ?x4727 ?x3528 ?x4729 ?x1079 (* 3.0 L_3)) 0.0)))
 (let (($x17063 (<= (+ ?x1371 (* 4.0 A_3) S_4 ?x387 (* (- 4.0) L_3) ?x1249) 0.0)))
 (let (($x249353 (or $x870 (<= (+ ?x342 A_1 ?x441 L_2) (- 10.0)) (<= (+ (* (- (/ 2.0 3.0)) A_2) (* (/ 2.0 3.0) L_2) (* (/ 2.0 3.0) S_0)) (- 10.0)))))
 (let (($x100454 (or $x851 $x872 (<= (+ A_4 ?x338 ?x346 L_3 ?x365 ?x3455 L_1 ?x402) 0.0))))
 (let (($x251087 (or $x851 (<= (+ ?x1374 ?x1043 ?x8063 (* (- 3.0) S_3) ?x1018 ?x1377) 0.0) $x97020)))
 (let (($x245547 (or $x870 (<= (+ A_4 ?x342 ?x1043 ?x1018 (* (- 2.0) S_3) L_2 ?x402) 0.0) (not $x100468))))
 (let (($x39545 (<= (+ ?x1197 ?x1000 (* (- 3.0) S_3) (* 3.0 S_0) ?x1022 ?x1183) 0.0)))
 (let ((?x988 (* (- 3.0) L_4)))
 (let ((?x1242 (* 3.0 L_3)))
 (let ((?x1159 (* (- 3.0) A_3)))
 (let ((?x1361 (* 3.0 A_4)))
 (let ((?x32117 (* (/ 4.0 3.0) L_4)))
 (let ((?x30472 (* (- (/ 4.0 3.0)) L_0)))
 (let ((?x28132 (* (/ 4.0 3.0) A_1)))
 (let ((?x33515 (* (- (/ 4.0 3.0)) A_4)))
 (let (($x874 (not $x872)))
 (let (($x250577 (or $x874 $x13954 $x19814 (<= (+ ?x33515 ?x28132 S_3 ?x927 ?x30472 ?x32117) 0.0) $x97020)))
 (let ((?x4442 (* (/ 2.0 3.0) L_4)))
 (let ((?x15364 (* (- (/ 2.0 3.0)) L_1)))
 (let ((?x15363 (* (/ 2.0 3.0) A_1)))
 (let ((?x4099 (* (- (/ 2.0 3.0)) A_4)))
 (let (($x119246 (or $x868 $x872 (<= (+ ?x4980 (* (- (/ 1.0 2.0)) A_1) S_2 (* (/ 1.0 2.0) L_1) ?x4989) (- 5.0)))))
 (let (($x106080 (or $x868 $x101800 (<= (+ ?x338 (* (/ 2.0 3.0) S_4) (* (/ 1.0 3.0) S_1) L_3) (- 5.0)))))
 (let (($x1935 (<= (+ (* (- 4.0) A_2) ?x1112 S_4 ?x387 ?x1057 (* 4.0 L_2)) 0.0)))
 (let (($x117354 (or $x870 (<= (+ A_4 ?x342 A_1 ?x402 ?x354 ?x441 L_2) 0.0) (<= (+ ?x1361 ?x1085 (* (- 2.0) S_4) ?x4781 ?x1035 ?x988) 0.0))))
 (let (($x48624 (<= (+ ?x338 ?x3517 A_1 ?x3519 (* (/ 1.0 2.0) S_4) ?x376 ?x441 L_3) 0.0)))
 (let (($x4990 (<= (+ ?x4920 ?x4970 S_4 ?x376 ?x4998 ?x4983) 0.0)))
 (let (($x24683 (<= (+ A_4 A_2 ?x346 ?x428 (* (- 2.0) S_4) S_1 L_1 ?x402) 0.0)))
 (let (($x118448 (or $x845 $x872 $x24683 (<= (+ ?x1197 ?x1000 ?x7998 (* 3.0 S_1) ?x1022 ?x1183) 0.0))))
 (let (($x119669 (or $x872 $x97020 (<= (+ ?x4099 (* (- (/ 1.0 3.0)) A_1) S_3 (* (/ 1.0 3.0) L_1) ?x4442) (- 5.0)))))
 (let ((?x5000 (* (- (/ 1.0 2.0)) L_3)))
 (let ((?x4997 (* (/ 3.0 2.0) L_1)))
 (let ((?x4996 (* (- (/ 3.0 2.0)) A_1)))
 (let ((?x4963 (* (/ 1.0 2.0) A_3)))
 (let (($x245780 (or $x868 $x28830 (<= (+ A_4 ?x689 A_2 A_1 ?x428 ?x376 ?x441 ?x1228 ?x402) 0.0))))
 (let (($x25545 (<= (+ A_4 ?x346 (* (- 3.0) S_3) (* 3.0 S_1) L_1 ?x402) 0.0)))
 (let (($x60191 (or $x845 (<= (+ A_2 ?x354 ?x428 ?x15147 ?x5908) 0.0) (<= (+ ?x354 ?x3455 ?x927) 0.0))))
 (let (($x753 (<= (+ (* (- 4.0) A_2) ?x1112 ?x862 S_4 L_0 ?x1057 (* 4.0 L_2)) 0.0)))
 (let (($x3142 (<= (+ ?x1375 (* (- 2.0) A_2) ?x365 S_0 (* 2.0 L_2) ?x1376) 0.0)))
 (let (($x118191 (or $x870 $x3142 (<= (+ A_3 ?x342 A_1 ?x441 ?x365 L_2 ?x415) 0.0))))
 (let ((?x1011 (* 2.0 L_2)))
 (let ((?x1020 (* (- 2.0) A_2)))
 (let ((?x12601 (+ A_3 ?x1020 A_1 ?x441 ?x1011 ?x415)))
 (let (($x251289 (or $x870 (<= (+ ?x1375 ?x1085 S_0 ?x1035 ?x1376) (- 5.0)) (<= ?x12601 (- 5.0)))))
 (let (($x8354 (<= (+ ?x4963 (* (- (/ 1.0 2.0)) A_1) ?x376 S_0 (* (/ 1.0 2.0) L_1) ?x5000) 0.0)))
 (let (($x1815 (<= (+ (* (- 5.0) A_2) ?x1930 S_4 ?x927 ?x1797 (* 5.0 L_2)) 0.0)))
 (let (($x3198 (<= (+ ?x1199 ?x1085 ?x354 S_0 ?x1035 ?x1189) 0.0)))
 (let (($x242462 (or $x870 $x3198 (not (<= (+ A_3 ?x342 ?x346 L_2 S_0 L_1 ?x415) 0.0)))))
 (let (($x24295 (<= (+ A_3 ?x342 ?x346 L_2 S_0 L_1 ?x415) 0.0)))
 (let (($x250477 (or $x870 $x3198 (<= 0.0 (+ A_3 ?x342 ?x346 S_0 L_1 L_2 ?x415)))))
 (let (($x116093 (or $x872 (<= (+ ?x346 (* (/ 1.0 3.0) S_3) (* (/ 2.0 3.0) S_0) L_1) (- 5.0)))))
 (let ((?x4446 (* (/ 1.0 3.0) L_4)))
 (let ((?x4428 (* (- (/ 1.0 3.0)) A_4)))
 (let ((?x4968 (* (/ 1.0 2.0) L_1)))
 (let ((?x3401 (* (/ 1.0 2.0) S_2)))
 (let ((?x4987 (* (- (/ 1.0 2.0)) A_1)))
 (let (($x123275 (or $x872 $x97020 (<= (+ ?x3435 ?x4963 ?x4987 ?x5000 ?x3401 ?x4968 ?x3530) (- 5.0)) (<= (+ ?x4428 (* (- (/ 2.0 3.0)) A_1) S_2 (* (/ 2.0 3.0) L_1) ?x4446) (- 5.0)))))
 (let (($x100644 (not $x100643)))
 (let (($x100565 (<= (+ ?x4986 ?x4973 (* (- (/ 1.0 2.0)) S_4)) (- 5.0))))
 (let (($x121802 (or $x872 (<= (+ ?x334 ?x1375 ?x342 ?x346 L_2 S_1 L_1 ?x1376 L_4) 0.0) $x97020)))
 (let (($x121044 (or $x845 $x870 (<= (+ A_4 ?x342 (* (- 2.0) S_4) ?x4767 L_2 ?x402) 0.0))))
 (let (($x251070 (or $x868 (<= (+ ?x338 ?x4727 (* 3.0 S_1) ?x4729 L_3) (- 5.0)) (<= (+ ?x338 A_2 ?x862 ?x428 S_1 L_0 L_3) (- 5.0)))))
 (let (($x13116 (<= (+ ?x1371 (* 4.0 A_3) ?x862 S_4 L_0 (* (- 4.0) L_3) ?x1249) 0.0)))
 (let (($x119472 (or $x870 (<= (+ ?x1020 A_1 S_3 ?x441 ?x1011) (- 10.0)) (<= (+ ?x342 (* (/ 2.0 3.0) S_3) (* (/ 1.0 3.0) S_0) L_2) (- 5.0)))))
 (let (($x119421 (or $x870 (<= (+ A_4 ?x689 ?x342 ?x1228 S_4 S_0 L_2 ?x402) 0.0) $x95651)))
 (let (($x121441 (or $x851 (<= (+ (* (/ 1.0 2.0) S_4) ?x365 (* (/ 1.0 2.0) S_0)) 0.0) (<= (+ ?x1043 ?x1018 S_4 (* (- 3.0) S_3)) 0.0))))
 (let (($x117141 (or $x870 (<= (+ ?x1197 ?x689 ?x1020 ?x1228 S_2 S_0 ?x1011 ?x1183) 0.0) $x95651)))
 (let (($x245244 (or $x870 (<= (+ A_4 ?x338 ?x1020 A_1 L_3 S_2 ?x441 ?x1011 ?x402) 0.0))))
 (let (($x1387 (<= (+ ?x1197 ?x1159 A_1 (* (- 1.0) L_0) ?x1242 ?x1183) 0.0)))
 (let (($x36802 (or $x845 (<= (+ A_2 ?x862 ?x354 ?x428 S_1 L_0) 0.0) (<= (+ ?x862 (* (- (/ 1.0 2.0)) S_4) (* (/ 3.0 2.0) S_1) L_0) 0.0))))
 (let (($x102891 (or $x851 (<= (+ (* (- (/ 1.0 2.0)) S_3) (* (/ 1.0 2.0) S_0)) (- 5.0)) (<= 0.0 (+ ?x346 (* (/ 1.0 2.0) S_3) (* (/ 1.0 2.0) S_0) L_1)))))
 (let (($x2033 (<= (+ (* (- 4.0) A_2) ?x1112 S_3 ?x927 ?x1057 (* 4.0 L_2)) 0.0)))
 (let (($x3626 (<= (+ (* (- 5.0) A_3) ?x6386 S_4 ?x927 ?x6388 (* 5.0 L_3)) 0.0)))
 (let (($x117168 (or (<= (+ ?x1365 ?x1063 ?x11109 (* 3.0 S_3) ?x11110 ?x1079 ?x1161) 0.0) $x97020)))
 (let (($x102290 (or $x845 (<= (+ ?x1066 ?x1025 (* (- 2.0) S_4)) (- 10.0)) (<= (+ ?x354 S_1) (- 10.0)))))
 (let (($x34474 (<= (+ ?x334 A_3 (* (- (/ 1.0 2.0)) A_0) ?x3401 (* (/ 1.0 2.0) L_0) ?x428 L_4) 0.0)))
 (let (($x781 (not $x868)))
 (let (($x17997 (<= (+ ?x1371 (* 4.0 A_3) S_3 ?x927 (* (- 4.0) L_3) ?x1249) 0.0)))
 (let (($x99555 (<= (+ A_4 ?x689 A_2 ?x428 ?x1228 ?x402) (- 5.0))))
 (let (($x246442 (or $x868 (<= (+ ?x1361 ?x1394 S_0 ?x1395 ?x988) (- 5.0)) (<= (+ ?x1197 ?x1159 A_1 ?x441 ?x1242 ?x1183) (- 5.0)) $x99555)))
 (let (($x17182 (<= (+ A_4 ?x689 A_2 A_1 ?x428 ?x376 (* (- 1.0) L_0) ?x1228 ?x402) 0.0)))
 (let (($x243215 (or $x851 $x872 (<= (+ A_3 ?x346 (* (- 2.0) S_3) ?x3455 L_1 ?x415) 0.0))))
 (let (($x120567 (or $x851 $x868 (= (+ ?x1374 ?x1199 ?x346 L_1 ?x1189 ?x1377) 0.0) (not (<= 0.0 (+ ?x1197 ?x1159 A_1 ?x441 ?x1242 ?x1183))))))
 (let (($x241370 (or $x870 $x874 (<= (+ A_3 ?x1020 A_1 (* (- 1.0) L_0) ?x1011 ?x415) 0.0))))
 (let ((?x708 (+ L_1 ?x428)))
 (let (($x271 (<= 0.0 ?x708)))
 (let (($x269 (not $x271)))
 (let (($x123173 (or $x283 $x851 $x868 (<= (+ A_4 ?x338 A_1 ?x441 ?x365 L_3 ?x402) 0.0))))
 (let (($x12865 (or $x845 (<= (+ ?x862 (* (- 2.0) S_4) (* 3.0 S_2) L_0) 0.0))))
 (let ((?x417 (+ L_0 ?x441)))
 (let (($x311 (<= 0.0 ?x417)))
 (let (($x115500 (or $x311 (<= (+ ?x334 A_3 ?x1066 ?x346 ?x415 ?x365 L_1 ?x1025 L_4) 0.0) $x78322 $x97020)))
 (let (($x1628 (<= ?x1627 0.0)))
 (let (($x1433 (not $x1628)))
 (let (($x1133 (= (+ ?x334 ?x1100 ?x1000 ?x1022 ?x1045 L_4) 0.0)))
 (let (($x96 (>= S_1 S_0)))
 (let (($x99 (>= S_2 S_1)))
 (let (($x102 (>= S_3 S_2)))
 (let (($x105 (>= S_4 S_3)))
 (let (($x107 (>= A_1 A_0)))
 (let (($x108 (>= A_2 A_1)))
 (let (($x109 (>= A_3 A_2)))
 (let (($x110 (>= A_4 A_3)))
 (and $x110 $x109 $x108 $x107 $x105 $x102 $x99 $x96 (or (not (<= 0.0 (+ L_2 ?x415))) $x868) (or (= (+ L_4 ?x415) 0.0) $x97021) (or $x271 (<= (+ ?x342 A_1 ?x441 L_2) (- 5.0))) (or $x271 (<= (+ ?x342 S_2 L_2) (- 5.0))) (or $x311 (<= (+ ?x346 S_1 L_1) (- 5.0))) (or $x271 $x311 $x868 (= (+ ?x338 ?x1066 ?x346 L_1 ?x1025 L_3) 0.0)) (or $x271 (<= (+ ?x342 A_1 ?x862 S_1 L_0 ?x441 L_2) 0.0)) (or $x271 $x1628) (or (<= 0.0 (+ ?x338 ?x1066 ?x346 L_1 ?x428)) $x271 $x781) (or $x311 $x845 (<= (+ ?x1066 ?x1000 ?x354 S_1 ?x1022 ?x1025) 0.0)) (or $x311 $x845 $x1133 $x1433 $x97020) (or $x311 $x1133 $x1433 $x1624 $x97020) (or $x311 $x1133 $x1433 (<= ?x1625 (- 5.0)) $x97020) (or $x311 $x1133 $x1433 $x1610 $x97020) (or $x271 $x311 $x1618 $x78322 $x97020) (or $x271 (<= (+ ?x1020 ?x1043 S_1 ?x927 ?x1018 ?x1011) 0.0)) (or $x271 (<= (+ A_4 ?x338 ?x342 L_3 S_1 L_2 ?x402) 0.0)) (or $x311 (<= (+ A_4 ?x338 ?x346 L_3 S_0 L_1 ?x402) 0.0)) (or $x311 $x1614 $x78322 $x97020) (or $x271 (<= (+ ?x1020 ?x1043 S_2 ?x387 ?x1018 ?x1011) 0.0)) $x115500 (or $x857 $x868 (<= (+ A_4 ?x338 ?x376 S_0 L_3 ?x402) 0.0)) (or (not $x311) $x872) (or $x868 (<= ?x2873 (- 5.0))) (or $x269 $x870) (or (<= ?x1384 (- 5.0)) $x97020) (or $x285 $x851 $x868 (<= (+ ?x1197 ?x689 ?x365 S_0 ?x1228 ?x1183) 0.0)) (or $x97020 (<= (+ ?x334 S_4 L_4) (- 5.0))) (or (<= (+ A_2 ?x1000 S_0 ?x1022 ?x428) (- 5.0)) $x872) (or $x868 $x870 (= (+ ?x334 ?x1375 ?x342 L_2 ?x1376 L_4) 0.0) $x97020) (or $x868 (<= (+ ?x689 ?x1066 S_1 ?x927 ?x1025 ?x1228) 0.0)) (or (<= (+ ?x1374 ?x1066 ?x3528 (* (- 2.0) S_2) ?x1025 ?x1377) 0.0) $x97020) (or $x845 (<= (+ ?x354 S_2) (- 5.0))) (or $x781 $x870 (<= (+ ?x334 ?x1375 ?x342 ?x428 L_4) 0.0) $x97020) (or $x870 (<= (+ ?x1085 ?x1063 S_2 ?x927 ?x1079 ?x1035) 0.0)) (or $x845 $x872 (<= (+ ?x346 ?x354 ?x4767 L_1) (- 5.0))) (or $x845 (<= (+ ?x7998 (* 4.0 S_2) ?x927) 0.0)) $x12865 (or (<= ?x7179 (- 10.0)) $x97020) (or $x868 (<= (+ ?x338 S_3 L_3) (- 5.0))) (or (<= (+ ?x334 A_2 S_4 ?x365 ?x428 L_4) 0.0) $x97020) $x123173 (or (<= (+ ?x334 A_3 ?x346 L_1 S_2 ?x415 L_4) 0.0) $x97020) (or $x870 (<= (+ ?x1375 ?x1020 ?x354 S_1 ?x1011 ?x1376) 0.0)) (or $x870 (<= (+ A_3 ?x342 ?x354 S_2 L_2 ?x415) 0.0)) (or $x872 (<= (+ ?x1066 ?x1000 ?x365 S_0 ?x1022 ?x1025) 0.0)) (or $x868 $x97021 (<= 0.0 (+ ?x334 ?x1375 ?x342 L_2 ?x415))) (or $x269 $x868 (<= (+ A_4 ?x689 A_2 ?x441 ?x1228 ?x402) 0.0)) (or (<= (+ ?x334 A_3 ?x862 S_1 L_0 ?x415 L_4) 0.0) $x97020) (or (<= (+ ?x1374 ?x1375 S_1 ?x927 ?x1376 ?x1377) 0.0) $x97020) (or $x868 (<= (+ ?x338 A_2 ?x862 S_1 L_0 ?x428 L_3) 0.0)) (or $x872 (<= (+ A_3 ?x346 ?x354 S_1 L_1 ?x415) 0.0)) (or $x857 $x870 (<= (+ A_3 ?x342 ?x376 S_0 L_2 ?x415) 0.0)) $x241370 (or (<= (+ ?x334 A_1 S_4 ?x376 ?x441 L_4) 0.0) $x97020) (or $x845 (<= (+ (* (- 2.0) S_4) (* 3.0 S_2) ?x387) 0.0)) (or $x851 (<= (+ (* (- 2.0) S_3) (* 3.0 S_1) ?x927) 0.0)) (or $x851 (<= (+ ?x862 ?x365 ?x3455 L_0) 0.0)) (or $x868 $x874 $x1387 $x99555) (or $x851 (<= (+ ?x365 S_1) (- 5.0))) (or $x868 (<= (+ ?x338 S_2 L_3) (- 10.0))) (or (<= (+ ?x1365 ?x1199 S_2 ?x927 ?x1189 ?x1161) 0.0) $x97020) (or $x857 (<= (+ ?x376 S_0) (- 5.0))) (or $x845 $x851 $x100565 $x100644) (or $x868 (<= (+ A_4 ?x689 S_2 ?x1228 ?x402) (- 5.0))) $x120567 $x243215 (or $x851 $x868 (<= 0.0 (+ ?x334 A_3 ?x415 S_3 ?x387 L_4))) (or (<= (+ ?x1365 ?x1199 S_4 ?x376 ?x1189 ?x1161) 0.0) $x97020) (or (<= (+ ?x1374 ?x1375 S_3 ?x376 ?x1376 ?x1377) 0.0) $x97020) (or $x868 $x874 $x1387 $x17182) (or (<= (+ ?x1374 ?x1375 ?x342 L_2 S_4 ?x1376 ?x1377) 0.0) $x97020) (or $x868 $x874 $x1387 $x17193) $x246442 (or $x868 $x99555 (<= (+ ?x1197 ?x1159 S_1 ?x1242 ?x1183) (- 5.0))) (or $x851 (<= (+ ?x338 L_3 S_4 ?x365 S_1) 0.0)) (or $x872 (<= (+ A_2 ?x346 ?x376 S_0 L_1 ?x428) 0.0)) (or $x870 (<= (+ A_3 ?x1020 S_1 ?x1011 ?x415) (- 5.0))) (or $x868 (<= (+ ?x689 A_2 S_4 ?x428 ?x1228) (- 5.0))) (or $x868 (<= (+ ?x1159 ?x1100 ?x346 L_1 S_4 ?x1045 ?x1242) 0.0)) (or $x868 (<= (+ ?x689 ?x1066 ?x346 L_1 S_3 ?x1025 ?x1228) 0.0)) (or $x845 $x872 (<= (+ ?x1100 ?x1049 ?x354 S_0 ?x1096 ?x1045) 0.0)) (or $x868 (<= (+ ?x1159 ?x1100 ?x862 S_3 L_0 ?x1045 ?x1242) 0.0)) (or $x868 (<= (+ ?x1394 ?x1140 ?x862 S_4 L_0 ?x1143 ?x1395) 0.0)) (or $x870 (<= (+ ?x3477 ?x3549 S_1 ?x3550 ?x3523) (- 5.0))) (or $x870 (<= (+ ?x342 ?x862 ?x3455 L_0 L_2) (- 5.0))) (or $x870 (<= (+ ?x1197 ?x1020 (* (- 2.0) S_4) ?x3455 ?x1011 ?x1183) 0.0)) (or $x17971 $x97020 $x101587) (or $x1610 $x17971 $x97020) (or $x17971 $x92005 $x97020) (or $x870 (<= (+ ?x1020 ?x1043 S_3 ?x376 ?x1018 ?x1011) 0.0)) (or $x97020 (<= (+ ?x1365 (* 4.0 S_3) ?x387 ?x1161) (- 15.0))) (or $x17997 $x97020) (or $x97020 (<= (+ ?x334 S_3 L_4) (- 10.0))) (or (<= (+ ?x334 A_3 ?x342 L_2 S_3 ?x415 L_4) 0.0) $x97020) (or $x872 (<= (+ A_2 ?x346 ?x365 S_1 L_1 ?x428) 0.0)) (or $x851 (<= (+ (* (/ 1.0 3.0) S_4) ?x365 (* (/ 2.0 3.0) S_1)) 0.0)) (or $x851 $x868 $x4976) (or $x781 $x34474 $x97020) (or (<= (+ ?x1374 ?x1375 ?x862 S_2 L_0 ?x1376 ?x1377) 0.0) $x97020) $x102290 (or $x868 (<= (+ A_4 ?x338 ?x354 S_2 L_3 ?x402) 0.0)) (or $x870 (<= (+ ?x1020 A_1 S_3 ?x441 ?x1011) (- 5.0))) (or $x97020 (<= (+ ?x1365 ?x862 (* 4.0 S_3) L_0 ?x1161) (- 15.0))) $x117168 (or $x868 $x3626) (or $x870 (<= (+ ?x1085 ?x1063 S_3 ?x387 ?x1079 ?x1035) 0.0)) (or $x868 (<= (+ ?x338 A_2 ?x346 L_1 S_2 ?x428 L_3) 0.0)) (or $x868 (<= (+ ?x689 ?x1066 S_2 ?x387 ?x1025 ?x1228) 0.0)) (or $x870 $x2033) (or $x870 (<= (+ ?x1020 ?x1043 ?x862 S_2 L_0 ?x1018 ?x1011) 0.0)) (or $x845 $x872 (<= (+ ?x4963 ?x4987 ?x354 S_2 ?x4968 ?x5000) 0.0)) (or $x870 (<= (+ ?x338 ?x342 A_1 L_3 S_4 ?x441 L_2) 0.0)) $x102891 (or $x851 (<= (+ A_1 ?x441 ?x365) (- 5.0)) $x100644) (or $x845 $x872 (<= (+ A_2 ?x346 ?x354 S_2 L_1 ?x428) 0.0)) $x36802 (or $x868 $x874 $x1387 $x13234) (or $x872 $x24295) (or $x868 (<= (+ ?x689 ?x1043 ?x4727 ?x4767 ?x4729 ?x1018 ?x1228) 0.0)) (or $x868 (<= (+ ?x338 A_1 ?x4727 ?x3455 ?x4729 ?x441 L_3) 0.0) $x13234) (or $x868 $x17193 $x28830) (or $x870 (<= (+ ?x1085 S_4 ?x3455 ?x1035) (- 15.0))) (or $x17971 $x31186 $x97020) $x245244 $x117141 (or $x872 (<= (+ ?x346 ?x3401 (* (/ 1.0 2.0) S_0) L_1) (- 5.0))) (or $x870 (<= (+ ?x1085 ?x1063 ?x862 S_3 L_0 ?x1079 ?x1035) 0.0)) (or $x868 (<= (+ ?x1394 ?x1140 S_3 ?x927 ?x1143 ?x1395) 0.0)) (or $x868 (<= (+ ?x689 ?x1066 S_3 ?x376 ?x1025 ?x1228) 0.0)) (or $x870 (<= (+ A_3 ?x342 ?x365 S_1 L_2 ?x415) 0.0)) $x121441 (or $x857 (<= (+ (* (/ 1.0 3.0) S_3) ?x376 (* (/ 2.0 3.0) S_0)) 0.0)) (or $x857 (<= (+ (* (/ 1.0 4.0) S_4) ?x376 (* (/ 3.0 4.0) S_0)) 0.0)) (or $x13292 $x31186 $x97020) (or $x1624 $x13292 $x97020) (or $x13292 $x97020 $x101587) $x119421 (or (<= (+ ?x334 A_2 ?x346 L_4 S_3 L_1 ?x428) 0.0) $x97020) (or $x845 $x3568 $x97020) (or $x845 $x3547 $x97020) (or $x3547 $x92005 $x97020) (or $x870 $x97020 (<= (+ ?x3435 ?x3414 S_3 ?x3452 ?x3530) (- 5.0))) $x119472 (or $x868 (<= (+ ?x1394 ?x1140 S_4 ?x387 ?x1143 ?x1395) 0.0)) (or $x868 $x872 (<= 0.0 ?x12601)) (or $x868 (<= (+ ?x338 A_1 S_3 ?x376 ?x441 L_3) 0.0)) (or $x872 (<= (+ ?x4992 ?x4996 ?x354 S_0 ?x4997 ?x4994) 0.0)) (or $x13116 $x97020) (or $x868 (<= (+ ?x689 ?x1066 ?x862 S_2 L_0 ?x1025 ?x1228) 0.0)) $x251070 (or $x868 (<= (+ ?x338 ?x346 L_1 ?x4767 L_3) (- 5.0))) (or $x868 (<= (+ ?x1197 ?x689 ?x354 S_1 ?x1228 ?x1183) 0.0) $x17193) (or $x872 (<= (+ ?x1197 ?x1000 (* (- 2.0) S_4) ?x4781 ?x1022 ?x1183) 0.0)) $x121044 (or $x868 $x28830 $x99555) (or $x868 $x11977 $x28830) (or $x868 $x13234 $x28830) $x121802 (or $x870 $x12695 $x95651) (or $x870 (<= (+ ?x1085 ?x1043 S_4 ?x1018 ?x1035) (- 5.0))) (or $x845 $x100565 $x100644 (not (<= (+ ?x342 A_1) (- 5.0)))) (or $x868 (<= (+ ?x689 ?x1043 ?x4767 ?x3658 ?x1018 ?x1228) 0.0)) (or $x872 (<= (+ ?x338 ?x346 L_3 S_4 S_0 L_1) (- 5.0))) $x123275 $x116093 (or (<= (+ ?x1374 ?x1375 S_4 ?x365 ?x1376 ?x1377) 0.0) $x97020) (or $x870 (<= (+ ?x342 S_1 L_2) (- 10.0))) (or $x872 (<= ?x100642 (- 10.0))) (or (<= (+ ?x1365 ?x1199 S_3 ?x387 ?x1189 ?x1161) 0.0) $x97020) (or (<= (+ ?x1374 ?x1375 S_2 ?x387 ?x1376 ?x1377) 0.0) $x97020) (or $x870 (<= (+ ?x3477 ?x3414 ?x365 S_1 ?x3452 ?x3523) 0.0)) $x250477 (or $x870 (<= (+ ?x1375 ?x1020 A_1 ?x441 ?x354 ?x1011 ?x1376) 0.0) $x24295) $x242462 (or $x870 $x1815) (or $x868 (<= (+ ?x689 ?x1066 S_4 ?x365 ?x1025 ?x1228) 0.0)) (or $x870 (<= (+ ?x1085 ?x1063 S_4 ?x376 ?x1079 ?x1035) 0.0)) (or $x870 (<= (+ ?x1020 ?x1043 S_4 ?x365 ?x1018 ?x1011) 0.0)) (or $x872 $x97020 (<= 0.0 (+ ?x1197 ?x1159 A_1 ?x441 ?x1242 ?x1183))) (or $x872 $x8354) (or $x857 (<= (+ ?x342 L_2 S_3 ?x376 S_0) 0.0)) (or $x868 (<= (+ ?x1159 ?x1100 S_2 ?x927 ?x1045 ?x1242) 0.0)) (or $x868 (<= (+ ?x1159 ?x1100 S_3 ?x387 ?x1045 ?x1242) 0.0)) (or $x868 $x13954 $x28830 $x97020) (or $x868 (<= (+ ?x1159 ?x1100 S_4 ?x376 ?x1045 ?x1242) 0.0)) $x251289 $x118191 (or $x753 $x870) (or $x845 $x18400 $x97020) $x60191 (or $x870 (<= (+ ?x342 (* (/ 3.0 2.0) S_1) ?x5908 L_2) (- 5.0))) (or $x851 $x872 $x25545) (or $x97020 (<= (+ ?x334 ?x342 L_2 ?x3528 L_4) (- 5.0))) (or $x872 (<= (+ ?x1375 ?x1000 (* (- 2.0) S_3) ?x4781 ?x1022 ?x1376) 0.0)) (or $x868 (<= (+ ?x689 S_4 S_2 ?x1228) (- 10.0))) $x245780 (or $x872 (<= (+ ?x4963 ?x4996 S_0 ?x4997 ?x5000) (- 5.0))) $x119669 (or $x868 $x38057 $x50889) (or $x868 $x5219 $x105614) $x118448 (or $x845 $x13954 $x26509 $x97020) (or $x845 $x15319 $x97020) (or $x868 $x4990 $x92005) (or $x868 $x4990 $x48624) (or $x868 $x5219 $x50866) $x117354 (or $x845 $x7186 $x97020) (or (<= (+ ?x1374 ?x1375 ?x346 L_1 S_3 ?x1376 ?x1377) 0.0) $x97020) (or $x868 $x38057 $x50866) (or $x868 $x13234 $x38057) (or $x868 $x38057 $x105614) (or $x870 $x1935) (or $x868 $x28830 $x50889) (or $x870 (<= (+ ?x342 (* (/ 1.0 2.0) S_3) ?x15147 L_2) (- 5.0))) $x106080 (or $x97020 $x97635 (<= (+ ?x334 S_2 L_4) (- 15.0))) (or $x857 (<= (+ ?x338 L_3 S_4 ?x376 S_0) 0.0)) (or $x3568 $x97020 $x101587) (or $x851 $x868 $x5219) (or $x868 $x5219 $x13234) (or $x851 $x868 $x5017) $x119246 (or $x1610 $x18400 $x97020) (or $x1624 $x17971 $x97020) (or (<= (+ ?x4099 ?x15363 S_3 ?x376 ?x15364 ?x4442) 0.0) $x97020) (or $x97020 (<= (+ ?x1374 (* 3.0 S_3) ?x376 ?x1377) (- 10.0))) $x250577 (or $x285 $x868 (<= (+ ?x1361 ?x1159 ?x354 S_0 ?x1242 ?x988) 0.0) $x17193) (or $x851 $x872 $x39545) (or $x857 (<= (+ ?x3414 ?x3452 (* (/ 1.0 2.0) S_4) ?x376 S_0) 0.0)) $x245547 $x251087 $x100454 $x249353 (or (<= (+ ?x1365 ?x1199 ?x346 L_1 S_4 ?x1189 ?x1161) 0.0) $x97020) (or $x17063 $x97020) (or $x868 (<= (+ ?x4920 ?x4986 S_4 ?x4973 ?x4983) (- 5.0)) $x101800) (or $x868 $x13234 $x38028) (or $x1624 $x3568 $x97020) (or $x851 $x4976 (<= (+ ?x689 ?x1228 ?x4720 ?x365 S_0) 0.0)) $x241211 (or $x868 (<= (+ ?x4980 ?x4986 ?x4973 ?x4989) (- 5.0))) (or $x11095 $x13954 $x19814 $x97020) (or $x1610 $x3568 $x97020) (or $x1610 $x13292 $x97020) (or $x1610 $x13168 $x97020) (or $x1610 $x3556 $x97020) (or $x851 $x868 (<= (+ ?x338 A_1 S_1 ?x927 ?x441 L_3) 0.0)) (or $x868 (<= (+ ?x338 A_1 S_1 ?x927 ?x441 L_3) 0.0) $x50889) (or $x868 (<= (+ ?x338 A_1 S_1 ?x927 ?x441 L_3) 0.0) $x13234) (or $x868 $x5219 $x11977) (or (<= (+ ?x334 A_2 ?x1000 ?x1022 ?x4767 ?x428 L_4) 0.0) $x92005 $x97020) (or (<= (+ ?x334 A_2 S_2 ?x387 ?x428 L_4) 0.0) $x97020 $x105677) (or $x1614 (<= (+ ?x334 A_2 S_2 ?x387 ?x428 L_4) 0.0) $x97020) (or $x845 (<= (+ ?x334 A_2 S_2 ?x387 ?x428 L_4) 0.0) $x97020) (or (<= (+ ?x334 A_2 S_2 ?x387 ?x428 L_4) 0.0) $x46639 $x97020) (or (<= (+ ?x334 A_2 S_2 ?x387 ?x428 L_4) 0.0) $x92005 $x97020) (or $x868 (<= (+ ?x689 ?x862 (* 3.0 S_2) L_0 ?x1228) (- 10.0))) (or $x872 $x104542) $x245624 $x241574 (or $x868 $x5017 $x13234) (or $x868 $x11977 $x38057) (or $x868 $x5017 $x105614) (or $x868 $x101819 (<= (+ ?x338 S_1 L_3) (- 15.0))) (or $x3556 $x97020 $x107396) (or $x7168 $x97020 $x107396) (or $x18400 $x97020 $x107396) (or $x18400 $x56996 $x97020) (or $x851 $x13168 $x55923 $x97020) (or $x15319 $x97020 $x101134) (or $x868 (<= (+ ?x338 A_1 S_1 ?x927 ?x441 L_3) 0.0) $x50866) (or $x868 (<= (+ ?x338 A_1 S_1 ?x927 ?x441 L_3) 0.0) $x105614) (or $x16456 $x97020) (or (<= (+ ?x1365 ?x1199 ?x862 S_3 L_0 ?x1189 ?x1161) 0.0) $x97020) (or (<= (+ ?x342 A_1 ?x441 L_2) (- 5.0)) $x845 $x97911 $x103607) $x243198 (or $x851 $x872 $x55923 $x78322 $x97020) (or $x868 (<= (+ ?x1394 ?x1112 ?x4727 ?x4720 ?x4729 ?x1057 ?x1395) 0.0) $x13234) (or $x868 $x11977 $x38030) (or $x868 $x5017 $x11977) (or $x1624 $x15319 $x97020) (or $x3568 (<= (+ ?x1043 ?x862 ?x1018 ?x365 L_0) 0.0) (not $x95651) $x97020) (or $x868 (<= (+ ?x1394 ?x1112 ?x4720 ?x3658 ?x1057 ?x1395) 0.0) $x11977) (or $x868 $x28830 $x50866) (or $x868 $x28830 $x105614) (or $x872 $x39511) $x116361 $x118098 (or (<= (+ ?x1374 ?x1043 ?x3528 ?x3658 ?x1018 ?x1377) 0.0) $x97020) $x249187 (or $x845 $x97911 $x100643 $x103607) (or $x845 $x17971 $x97020) (or $x870 $x1618 $x7168 $x97020) (or $x845 $x7168 $x97020) (or $x845 $x3556 $x97020) (or $x97020 (<= (+ ?x1371 (* 5.0 S_3) ?x927 ?x1249) (- 20.0))) (or $x97020 $x102048) (or $x1614 $x3547 $x97020) (or $x3547 $x46639 $x97020) (or $x3547 $x97020 $x105677) (or $x7168 $x46639 $x97020) (or $x7168 $x97020 $x105677) (or $x1614 $x7168 $x97020) (or $x870 $x12695 $x100468) (or $x13292 $x92005 $x97020) (or $x13954 $x19814 $x26509 $x97020) (or $x1614 $x15319 $x97020) (or $x7186 $x97020 $x101587) (or $x845 (<= (+ ?x1049 ?x1096 ?x7998 (* 6.0 S_2)) 0.0)) (or $x3568 $x92005 $x97020) (or $x7186 $x92005 $x97020) (or $x1614 $x13168 $x97020) (or $x1614 $x13283 $x97020) (or $x1614 $x3556 $x97020) (or $x13168 $x92005 $x97020) (or $x868 $x5017 $x50889) (or $x872 (<= (+ ?x342 ?x346 L_2 S_3 S_0 L_1) (- 5.0))) $x125800 $x120668 (or $x97020 $x97635 $x100534 (<= (+ ?x334 S_1 L_4) (- 20.0))) $x244599 (or $x1624 $x97020 $x103462) (or $x97020 $x97635 $x103462) (or $x13283 $x97020 $x105677) (or $x13283 $x92005 $x97020) (or $x872 (<= (+ A_4 ?x342 ?x1000 L_2 ?x4781 ?x1022 ?x402) (- 5.0))) (or $x870 $x18759 $x95651) (or $x1610 $x13283 $x97020) $x244480 (or $x13168 $x97020 $x107396) (or $x857 $x870 $x18759) (or $x1610 $x3547 $x97020) $x244942 (or $x868 $x99577 (<= (+ ?x338 ?x3455 ?x927 L_3) (- 5.0))) (or $x872 $x16072) (or $x851 $x55923 $x97020 $x103462) (or $x1614 $x15360 $x97020) $x247854 (or $x851 $x11095 $x55923 $x97020) (or $x851 $x26509 $x55923 $x97020) (or $x1624 $x18400 $x97020) (or $x851 $x15319 $x55923 $x97020) (or $x13168 $x56996 $x97020) (or $x845 $x13954 $x35461 $x97020) (or $x845 $x97020 $x103462) $x247866 (or $x7186 $x31186 $x97020) (or $x7168 $x31186 $x97020) (or $x7168 $x56996 $x97020) (or $x3556 $x31186 $x97020) (or $x851 $x35461 $x55923 $x97020) (or $x13954 $x35461 $x97020 $x101134) (or $x13954 $x19814 $x35461 $x97020) (or $x1624 $x13954 $x35461 $x97020) (or $x1614 $x13954 $x35461 $x97020) $x101974 (or $x15319 $x19814 $x97020) (or $x872 $x78322 $x97020 $x101134) (or $x872 $x19814 $x78322 $x97020) $x246059 (or $x1614 $x11095 $x13954 $x97020) (or $x1624 $x11095 $x13954 $x97020) (or $x11095 $x13954 $x97020 $x101134) $x242286 (or $x3568 $x31186 $x97020) (or $x13168 $x31186 $x97020) $x246924 (or $x870 $x1618 $x18400 $x97020) (or $x851 $x18400 $x55923 $x97020) (or $x18400 $x97020 $x101134) (or $x18400 $x19814 $x97020) (or $x18400 $x97020 $x101587) (or $x3556 $x46639 $x97020) (or $x1614 $x97020 $x103462) (or $x19814 $x97020 $x103462) (or $x1624 $x13954 $x26509 $x97020) (or $x97020 $x101134 $x103462) (or $x13954 $x26509 $x97020 $x101134) (or $x870 (<= (+ ?x3548 ?x338 ?x3549 L_3 S_0 ?x3550 ?x3551) 0.0) $x95651) (or $x14525 $x92005 $x97020) (or $x870 (<= (+ ?x338 ?x342 L_3 S_4 S_1 L_2) (- 5.0))) $x241077 (or $x868 $x100364) (or $x868 $x101808) (or $x18400 $x31186 $x97020) (or $x18400 $x92005 $x97020) $x251209 (or $x13283 $x46639 $x97020) (or $x870 $x1618 $x3556 $x97020) (or $x870 $x1618 $x13168 $x97020) (or $x1624 $x3556 $x97020) (or $x1624 $x13168 $x97020) (or $x13168 $x97020 $x105677) (or $x3556 $x97020 $x101587) (or $x3556 $x97020 $x105677) (or $x3556 $x56996 $x97020) (or $x13168 $x46639 $x97020) (or $x1624 $x7168 $x97020) (or $x1624 $x7186 $x97020) $x251065 (or $x7168 $x97020 $x101587) (or $x13168 $x97020 $x101587) (or $x7168 $x92005 $x97020) (or $x3556 $x92005 $x97020) $x246114 $x247479 (or $x13168 $x97020 $x101134) (or $x3556 $x97020 $x101134) (or $x13168 $x19814 $x97020) $x249387 (or $x97020 (<= (+ ?x334 A_3 ?x415 ?x15147 ?x5908 L_4) (- 5.0)) $x101960 $x107021) (or $x7168 $x97020 $x101134) (or $x851 $x7168 $x55923 $x97020) (or $x851 $x3556 $x55923 $x97020) $x241355 (or $x3556 $x19814 $x97020) $x34 (<= (+ ?x862 S_0 L_0) 0.0) (<= (+ ?x338 S_3 L_3) 0.0) (<= (+ ?x346 S_1 L_1) 0.0) (<= (+ ?x334 L_4 S_4) 0.0) (<= (+ ?x342 S_2 L_2) 0.0))))))))))))))))))))))))))))))))))))))))))))))))))))))))))))))))))))))))))))))))))))))))))))))))))))))))))))))))))))))))))))))))))))))))))))))))))))))))))))))))))))))))))))))))))))))))))))))))))))))))))))))))))))))))))))))))))))))))))))))))))))))))))))))))))))))))))))))))))))))))))))))))))))))))))))))))))))))))))))))))))))))
(check-sat)
